RT is False
Default write of storage_offers_DA.csv just to have a file (but constraint should be inactive)
Reading model...
...model read.
creating competitive generators file...
...competitive generators recorded.
Loading data...
.. day-ahead data with real-time VRE data read.
Compiling instance...
...instance created.
Creating Offer Mitigation (model will solve as dispatch if TRUE)...
NOTE: storage offers will not be mitigated
...storage offer mitigation file created
Converting model to MPEC...
...converted
NOTE: initial MIP solve with only storage competitive to get feasible solution
Solving...

Welcome to IBM(R) ILOG(R) CPLEX(R) Interactive Optimizer 12.9.0.0
  with Simplex, Mixed Integer & Barrier Optimizers
5725-A06 5725-A29 5724-Y48 5724-Y49 5724-Y54 5724-Y55 5655-Y21
Copyright IBM Corp. 1988, 2019.  All Rights Reserved.

Type 'help' for a list of available commands.
Type 'help' followed by a command name for more
information on commands.

CPLEX> Logfile 'cplex.log' closed.
Logfile 'C:\Users\llavin\Desktop\test826\logs\tmpn2tjldk5.cplex.log' open.
CPLEX> New value for parallel optimization mode: -1
CPLEX> New value for emphasis for MIP optimization: 1
CPLEX> New value for mixed integer optimality gap tolerance: 0.01
CPLEX> New value for integrality tolerance: 1e-12
CPLEX> New value for deterministic time limit in ticks: 75000
CPLEX> Problem 'C:\Users\llavin\Desktop\test826\logs\tmpkqku8jg7.pyomo.lp' read.
Read time = 0.22 sec. (13.92 ticks)
CPLEX> Problem name         : C:\Users\llavin\Desktop\test826\logs\tmpkqku8jg7.pyomo.lp
Objective sense      : Maximize
Variables            :   53809  [Nneg: 1,  Box: 22004,  Free: 4464,
                                 Binary: 27340]
Objective nonzeros   :    9029
Linear constraints   :  123253  [Less: 41346,  Greater: 59096,  Equal: 22811]
  Nonzeros           :  293217
  RHS nonzeros       :   67491

Variables            : Min LB: -5000.000        Max UB: 1000000.       
Objective nonzeros   : Min   : 0.4000000        Max   : 2500.000       
Linear constraints   :
  Nonzeros           : Min   : 0.4000000        Max   : 1000000.       
  RHS nonzeros       : Min   : 0.4000000        Max   : 1000000.       
CPLEX> CPXPARAM_Parallel                                -1
CPXPARAM_Emphasis_MIP                            1
CPXPARAM_DetTimeLimit                            75000
CPXPARAM_MIP_Tolerances_MIPGap                   0.01
CPXPARAM_MIP_Tolerances_Integrality              9.9999999999999998e-13
Tried aggregator 4 times.
MIP Presolve eliminated 88693 rows and 18996 columns.
MIP Presolve added 3376 rows and 0 columns.
MIP Presolve modified 24837 coefficients.
Aggregator did 12983 substitutions.
Reduced MIP has 24953 rows, 21274 columns, and 71771 nonzeros.
Reduced MIP has 8409 binaries, 0 generals, 0 SOSs, and 0 indicators.
Presolve time = 0.31 sec. (195.00 ticks)
Probing fixed 397 vars, tightened 3861 bounds.
Probing time = 0.08 sec. (19.00 ticks)
Tried aggregator 2 times.
MIP Presolve eliminated 905 rows and 800 columns.
MIP Presolve modified 3038 coefficients.
Aggregator did 34 substitutions.
Reduced MIP has 24014 rows, 20440 columns, and 69049 nonzeros.
Reduced MIP has 8010 binaries, 0 generals, 0 SOSs, and 0 indicators.
Presolve time = 0.11 sec. (89.50 ticks)
Probing fixed 0 vars, tightened 216 bounds.
Probing time = 0.14 sec. (22.63 ticks)
Clique table members: 45021.
MIP emphasis: integer feasibility.
MIP search method: dynamic search.
Parallel mode: opportunistic, using up to 32 threads.
Root relaxation solution time = 0.42 sec. (628.91 ticks)

        Nodes                                         Cuts/
   Node  Left     Objective  IInf  Best Integer    Best Bound    ItCnt     Gap

      0     0      -22.1826   149                    -22.1826     5538         
      0     0      -22.1826     1                     Cuts: 6     5540         
      0     0      -22.1826     1                 Flowcuts: 1     5541         
      0    22    infeasible                       Impl Bds: 1     5661         
Elapsed time = 3.17 sec. (1681.97 ticks, tree = 0.03 MB, solutions = 0)
    544   216    infeasible                          -33.4184    16894         
    897   395  -119047.8114    45                    -33.4184    29195         
   1496   674      -62.8884     2                    -33.4184    41451         
   2139  1028  -107859.0157    21                    -33.4184    55411         
   2802  1308     -584.5848     3                    -33.4184    61995         
*  2863+  984                         -704.4530      -33.4184            95.26%
   3605   920     -287.6528     1     -704.4530      -34.3164    79140   95.13%
   4429  1077     -423.8047     1     -704.4530      -34.3164    89650   95.13%
   5405  1229     -692.5570     2     -704.4530      -34.6157    90912   95.09%
   8612  3508     -370.9021     3     -704.4530      -34.6157   103846   95.09%
Elapsed time = 17.50 sec. (4577.70 ticks, tree = 26.64 MB, solutions = 1)
   8613  4153        cutoff           -704.4530      -34.6157   112532   95.09%
  11773  1885     -333.2887     6     -704.4530      -34.6157   137937   95.09%
  18707  2257     -102.8037     3     -704.4530      -34.6157   145031   95.09%
  26442  5699     -326.5751     6     -704.4530      -34.6157   187940   95.09%
  32483  9103     -398.0240     5     -704.4530      -34.6157   222367   95.09%
  34695 11473     -692.5570     2     -704.4530      -34.6157   248004   95.09%
  41782 13114     -292.8098     3     -704.4530      -34.6157   264437   95.09%
  49336 14328    infeasible           -704.4530      -34.6157   276403   95.09%
  56879 15480     -692.5570     1     -704.4530      -34.6157   287563   95.09%
  63528 20654    infeasible           -704.4530      -34.6157   343996   95.09%
Elapsed time = 58.95 sec. (14418.06 ticks, tree = 97.17 MB, solutions = 1)
  69596 21370     -692.5570     1     -704.4530      -34.6157   352599   95.09%
  75621 25456     -692.5570     1     -704.4530      -34.6157   400981   95.09%
  82958 26105    infeasible           -704.4530      -34.6157   408966   95.09%
  90205 30674     -692.5570     1     -704.4530      -34.6157   466572   95.09%
  94502 30405    infeasible           -704.4530      -34.6157   463511   95.09%
  95258 35648        cutoff           -704.4530      -34.6635   528426   95.08%

GUB cover cuts applied:  1
Cover cuts applied:  30
Implied bound cuts applied:  10
Flow cuts applied:  6
Mixed integer rounding cuts applied:  4
Gomory fractional cuts applied:  8

Root node processing (before b&c):
  Real time             =    2.22 sec. (1673.36 ticks)
Parallel b&c, 32 threads:
  Real time             =   76.14 sec. (19266.46 ticks)
  Sync time (average)   =    2.06 sec.
  Wait time (average)   =    0.23 sec.
                          ------------
Total (root+branch&cut) =   78.36 sec. (20939.82 ticks)

Solution pool: 1 solution saved.

MIP - Integer optimal solution:  Objective = -7.0445302932e+02
Solution time =   78.39 sec.  Iterations = 555497  Nodes = 98506
Deterministic time = 20939.97 ticks  (267.13 ticks/sec)

CPLEX> Incumbent solution written to file 'C:\Users\llavin\Desktop\test826\logs\tmpn_bbxexp.cplex.sol'.
CPLEX> NOTE: no warmstart specified for MIP iteration, default behavior is true
NOTE: resolving with all competitive generators using storage-only solution to warmstart
Solving...

Welcome to IBM(R) ILOG(R) CPLEX(R) Interactive Optimizer 12.9.0.0
  with Simplex, Mixed Integer & Barrier Optimizers
5725-A06 5725-A29 5724-Y48 5724-Y49 5724-Y54 5724-Y55 5655-Y21
Copyright IBM Corp. 1988, 2019.  All Rights Reserved.

Type 'help' for a list of available commands.
Type 'help' followed by a command name for more
information on commands.

CPLEX> Logfile 'cplex.log' closed.
Logfile 'C:\Users\llavin\Desktop\test826\logs\tmpb0sq37ez.cplex.log' open.
CPLEX> New value for parallel optimization mode: -1
CPLEX> New value for emphasis for MIP optimization: 1
CPLEX> New value for mixed integer optimality gap tolerance: 0.01
CPLEX> New value for integrality tolerance: 1e-12
CPLEX> New value for deterministic time limit in ticks: 75000
CPLEX> Problem 'C:\Users\llavin\Desktop\test826\logs\tmpbo4k89im.pyomo.lp' read.
Read time = 0.22 sec. (13.94 ticks)
CPLEX> MIP start file 'C:\Users\llavin\Desktop\test826\logs\tmp2sq1rk_0.cplex.mst' read.
CPLEX> Problem name         : C:\Users\llavin\Desktop\test826\logs\tmpbo4k89im.pyomo.lp
Objective sense      : Maximize
Variables            :   54529  [Nneg: 1,  Box: 22724,  Free: 4464,
                                 Binary: 27340]
Objective nonzeros   :    9725
Linear constraints   :  123253  [Less: 41346,  Greater: 59096,  Equal: 22811]
  Nonzeros           :  293217
  RHS nonzeros       :   67491

Variables            : Min LB: -5000.000        Max UB: 1000000.       
Objective nonzeros   : Min   : 0.4000000        Max   : 2500.000       
Linear constraints   :
  Nonzeros           : Min   : 0.4000000        Max   : 1000000.       
  RHS nonzeros       : Min   : 0.4000000        Max   : 1000000.       
CPLEX> CPXPARAM_Parallel                                -1
CPXPARAM_Emphasis_MIP                            1
CPXPARAM_DetTimeLimit                            75000
CPXPARAM_MIP_Tolerances_MIPGap                   0.01
CPXPARAM_MIP_Tolerances_Integrality              9.9999999999999998e-13
Warning:  No solution found from 1 MIP starts.
Retaining values of one MIP start for possible repair.
Tried aggregator 4 times.
MIP Presolve eliminated 88693 rows and 19716 columns.
MIP Presolve added 3376 rows and 0 columns.
MIP Presolve modified 24837 coefficients.
Aggregator did 12983 substitutions.
Reduced MIP has 24953 rows, 21274 columns, and 71771 nonzeros.
Reduced MIP has 8409 binaries, 0 generals, 0 SOSs, and 0 indicators.
Presolve time = 0.33 sec. (195.42 ticks)
Probing fixed 397 vars, tightened 3861 bounds.
Probing time = 0.06 sec. (19.00 ticks)
Tried aggregator 2 times.
MIP Presolve eliminated 905 rows and 800 columns.
MIP Presolve modified 3038 coefficients.
Aggregator did 34 substitutions.
Reduced MIP has 24014 rows, 20440 columns, and 69049 nonzeros.
Reduced MIP has 8010 binaries, 0 generals, 0 SOSs, and 0 indicators.
Presolve time = 0.11 sec. (89.50 ticks)
Probing fixed 0 vars, tightened 216 bounds.
Probing time = 0.14 sec. (22.63 ticks)
Clique table members: 45021.
MIP emphasis: integer feasibility.
MIP search method: dynamic search.
Parallel mode: opportunistic, using up to 32 threads.
Root relaxation solution time = 0.45 sec. (663.74 ticks)

        Nodes                                         Cuts/
   Node  Left     Objective  IInf  Best Integer    Best Bound    ItCnt     Gap

      0     0   109346.5973   290                 109346.5973     5852         
      0     0    96827.5983   170                   Cuts: 131     6055         
      0     0    95597.9915   144                    Cuts: 61     6138         
      0     0    85535.9509   135                    Cuts: 19     6159         
Repair heuristic found nothing.
      0    11    65258.0026   124                     Cuts: 6     6249         
Elapsed time = 4.50 sec. (1913.23 ticks, tree = 0.02 MB, solutions = 0)
    539   227    58266.1307    91                  83664.4819    11967         
   1051   569   -11758.2543    50                  83664.4819    26127         
   1717   929    44212.1707    82                  83664.4819    39493         
   2327  1288    infeasible                        83019.0237    54109         
   2945  1597    42068.6922    83                  83019.0237    70532         
   3555  1838     6418.3961    26                  82670.9961    82684         
   4092  2414    11813.5373    46                  72473.3253   112007         
   4644  2527    infeasible                        72045.1334   119017         
   5207  3155     -864.1853    23                  71550.9933   159265         
   7566  3942    22775.9022    82                  70385.7025   232490         
Elapsed time = 21.33 sec. (5018.62 ticks, tree = 39.02 MB, solutions = 0)
   9763  4616     2913.2498    49                  59873.1214   307713         
  12035  5317    infeasible                        59873.1214   383629         
  14240  6758    -7737.0693    50                  44491.1267   530096         
  16599  7898  -342032.8959    40                  44491.1267   645390         
  18906  8860     5856.0382    21                  44491.1267   704207         
  21235  9564 -1542248.8874    30                  44491.1267   735775         
  23825 10792     2102.4406    34                  44491.1267   788104         
  26933 11918     1962.3105    32                  44491.1267   846598         
  29755 13353    infeasible                        44491.1267   899308         
  32968 13883     1491.7390    36                  44491.1267   911151         
Elapsed time = 78.19 sec. (14557.70 ticks, tree = 143.40 MB, solutions = 0)
  36400 16008    infeasible                        44491.1267   957398         
  39592 17059    infeasible                        44491.1267   979738         
  42519 17489     5794.5404    23                  44491.1267   987805         
  44390 19011     5122.1616    31                  44491.1267  1026109         
  44663 20455    infeasible                        44491.1267  1091107         
  46462   731    infeasible                        32644.9214  1109443         
  49014  1703     6521.5737    10                  32644.9214  1142603         
  51083  3039     5429.5008    11                  32644.9214  1192192         
  52577  3789     6071.1498     6                  32644.9214  1215940         
  53501  4002    infeasible                        32644.9214  1222339         
Elapsed time = 113.45 sec. (25428.61 ticks, tree = 63.35 MB, solutions = 0)
  53917  4192    infeasible                        32644.9214  1228472         
  54219  4404    infeasible                        32644.9214  1232257         
  54485  4388    infeasible                        32644.9214  1232226         
  54724  4451    infeasible                        32644.9214  1232583         
  55030  4370     6521.5737     4                  32644.9214  1231758         
  55260  4439    infeasible                        32644.9214  1232588         
  55575  4607     6521.5737     4                  32644.9214  1235465         
  56035  4523     2055.4191     8                  32644.9214  1234650         
  56393  4948    infeasible                        32644.9214  1242911         
  56710  4817     6521.5737     4                  32644.9214  1239752         
Elapsed time = 156.70 sec. (34999.63 ticks, tree = 69.62 MB, solutions = 0)
  56901  4819    infeasible                        32644.9214  1239866         
  57095  4704     6521.5737     4                  32644.9214  1237048         
  57277  5020     6521.5737     4                  32644.9214  1245623         
  57505  4907    infeasible                        32644.9214  1242415         
  57783  5063     6404.1400     5                  32644.9214  1246101         
  58067  5098     5019.1680     9                  32644.9214  1246802         
  58262  5094     6521.5737     4                  32644.9214  1246697         
  58488  5029    infeasible                        32644.9214  1245730         
  58656  5081    infeasible                        32644.9214  1246371         
  58855  5131     6521.5737     4                  32644.9214  1247027         
Elapsed time = 168.34 sec. (44580.95 ticks, tree = 72.24 MB, solutions = 0)
  59079  5142     6521.5737     5                  32644.9214  1247216         
  59296  5136    infeasible                        32644.9214  1247162         
  59522  5408     6521.5737     3                  32644.9214  1251637         
  59725  5429    infeasible                        32644.9214  1252496         
  59898  5622     6521.5737     5                  32644.9214  1255019         
  60051  5473     6521.5737     5                  32644.9214  1253001         
  60229  5775    infeasible                        32644.9214  1257168         
  60400  5549     6521.5737     4                  32644.9214  1254226         
  60554  5548     6521.5737     4                  32644.9214  1254166         
  60678  5609     6521.5737     4                  32644.9214  1254855         
Elapsed time = 168.34 sec. (54167.16 ticks, tree = 74.97 MB, solutions = 0)
  60813  5613    infeasible                        32644.9214  1255003         
  60924  5835    infeasible                        32644.9214  1258390         
  61079  5672    infeasible                        32644.9214  1255454         
  61288  5610    infeasible                        32644.9214  1254960         
  61406  5742     6521.5737     5                  32644.9214  1256252         
  61500  5712    infeasible                        32644.9214  1255857         
  61610  5744    infeasible                        32644.9214  1256353         
  61739  5909     6521.5737     4                  32644.9214  1259268         
  61858  5910    infeasible                        32644.9214  1259288         
  61974  5752    -2400.8439    12                  32644.9214  1256394         
Elapsed time = 168.45 sec. (63773.75 ticks, tree = 82.64 MB, solutions = 0)
  62148  5924    infeasible                        32644.9214  1259761         
  62296  5868    infeasible                        32644.9214  1258782         
  62453  5881     6521.5737     3                  32644.9214  1258834         
  62539  5851    infeasible                        32644.9214  1258832         
  62606  5884    infeasible                        32644.9214  1258910         
  62666  5932     6521.5737     5                  32644.9214  1259879         
  62732  5812     6521.5737     4                  32644.9214  1258024         
  62783  5856    infeasible                        32644.9214  1258503         
  62803  5859     6521.5737     4                  32644.9214  1258517         
  62822  5860     6521.5737     4                  32644.9214  1258519         
Elapsed time = 173.44 sec. (73623.65 ticks, tree = 81.15 MB, solutions = 0)
  62836  5859     6521.5737     4                  32644.9214  1258510         

GUB cover cuts applied:  2
Cover cuts applied:  30
Implied bound cuts applied:  6
Flow cuts applied:  120
Mixed integer rounding cuts applied:  11
Gomory fractional cuts applied:  3

Root node processing (before b&c):
  Real time             =    2.78 sec. (1875.03 ticks)
Parallel b&c, 32 threads:
  Real time             =  171.30 sec. (73705.89 ticks)
  Sync time (average)   =    1.60 sec.
  Wait time (average)   =    0.25 sec.
                          ------------
Total (root+branch&cut) =  174.08 sec. (75580.91 ticks)


MIP - Deterministic time limit exceeded, no integer solution.
Current MIP best bound =  3.2644921421e+04 (gap is infinite)
Solution time =  174.11 sec.  Iterations = 1266623  Nodes = 62839 (6271)
Deterministic time = 75581.07 ticks  (434.10 ticks/sec)

CPLEX> CPLEX Error  1217: No solution exists.
No file written.
CPLEX> gap is infinite, so writing 0
Exporting results... 
